DIMENSION :21
NODE_COORD_SECTION
1 -54.31977189057919 12.973534464619576
2 89.87038413578023 -83.25779962015267
3 22.677303670662255 23.17758926206419
4 52.14997472436701 99.53775522580014
5 85.4252329817518 31.421819631855698
6 11.474923577774646 37.253379947421735
7 2.1505629886555653 -60.53097552365851
8 76.02808038911124 91.56565147059789
9 -30.18477409630252 -46.506874309256595
10 -6.344438874565057 45.11991167714328
11 94.8966465272467 50.563769878640926
12 -79.2369673346723 97.60518342542784
13 -79.51162186427159 -10.646663066618814
14 -55.958098678888035 -46.3990681785027
15 -74.51577081161255 -76.69992527978862
16 -52.31704549910832 34.35519071486311
17 -99.28966410135081 80.12499433145652
18 -86.53861713335911 91.94244236604436
19 67.22129922076675 -91.48562476893365
20 17.053881184332113 -18.211142033611694
21 43.57798437107715 -39.05636093181653
EOF
